StudentsNr = 10;
InstructorsNr = 26;
DaysNr = 1;
SlotsPerDay = 10;
AvailabilitySlotsLenght = 1;
RoomNr = 2;
ProgrammNr = 2;
DegreeNr = 2;
RolesNr = 0;
CoursesNr = 7;
InstructorsProgramm = [{2}, {1, 2}, {2}, {2}, {2}, {1, 2}, {1}, {2}, {1, 2}, {1}, {2}, {2}, {1, 2}, {1}, {1, 2}, {1}, {2}, {1, 2}, {1, 2}, {1, 2}, {1, 2}, {1}, {1}, {1}, {2}, {2}];
InstructorRolesPerProgramm = array2d(1..ProgrammNr,{},[]);
InstructorsAvailability = [|1, 0, 0, 1, 1, 1, 1, 1, 1, 1, |0, 1, 0, 0, 0, 0, 0, 0, 1, 1, |0, 0, 0, 1, 1, 0, 0, 1, 1, 1, |1, 1, 1, 0, 1, 1, 0, 0, 1, 1, |1, 1, 1, 1, 1, 1, 1, 1, 1, 1, |1, 1, 1, 1, 1, 1, 1, 0, 1, 1, |1, 1, 1, 1, 1, 1, 0, 0, 0, 0, |1, 1, 0, 1, 1, 0, 0, 1, 1, 1, |1, 1, 1, 0, 1, 1, 1, 1, 1, 1, |0, 1, 1, 1, 1, 1, 1, 1, 1, 1, |1, 1, 1, 1, 1, 1, 1, 1, 0, 0, |0, 0, 1, 1, 1, 1, 0, 0, 1, 1, |1, 1, 1, 1, 1, 1, 1, 1, 1, 1, |1, 0, 0, 1, 1, 1, 1, 1, 1, 1, |1, 1, 1, 1, 1, 1, 1, 1, 0, 0, |0, 1, 0, 0, 1, 0, 0, 0, 0, 0, |1, 1, 1, 1, 1, 0, 1, 1, 1, 1, |1, 1, 1, 1, 1, 1, 1, 1, 1, 1, |0, 0, 1, 1, 0, 1, 1, 1, 1, 1, |0, 0, 1, 1, 1, 1, 1, 1, 1, 1, |0, 1, 1, 1, 1, 1, 1, 1, 1, 1, |1, 1, 0, 0, 0, 0, 1, 0, 1, 1, |1, 1, 1, 0, 1, 1, 1, 1, 1, 1, |1, 1, 1, 1, 0, 1, 1, 1, 1, 1, |1, 1, 0, 1, 1, 1, 1, 1, 1, 0, |0, 0, 1, 1, 1, 1, 1, 1, 1, 0|];
StudentsProgramm = [2, 2, 2, 1, 2, 2, 2, 1, 2, 2];
StudentsDegree = [2, 1, 2, 2, 2, 1, 1, 2, 2, 2];
StudentsSupervisorId = [11, 13, 11, 15, 8, 6, 11, 6, 20, 9];
StudentsCourseIds = [{2, 3, 4, 5}, {2}, {1, 2, 4, 5}, {3, 5, 6, 7}, {2, 4, 5, 7}, {6}, {6}, {3, 4, 6, 7}, {1, 2, 4, 7}, {1, 2, 6, 7}];
StudentsAvailability = [|1, 1, 1, 1, 1, 1, 1, 1, 1, 1, |1, 1, 0, 0, 0, 0, 1, 1, 1, 1, |1, 1, 1, 0, 0, 0, 1, 1, 1, 1, |1, 1, 1, 0, 1, 1, 1, 1, 1, 1, |0, 0, 1, 1, 1, 1, 1, 1, 1, 1, |0, 1, 1, 1, 1, 1, 1, 1, 1, 1, |0, 0, 0, 0, 0, 0, 0, 0, 0, 0, |1, 0, 1, 1, 1, 1, 1, 1, 1, 1, |1, 1, 1, 1, 1, 1, 1, 1, 1, 1, |0, 0, 0, 0, 1, 1, 0, 1, 1, 1|];
TheoryticalMinCard = [4, 1, 4, 4, 4, 2, 2, 4, 4, 4];
CoursesInstructorIds = [{3, 4, 7, 8, 11, 13, 14, 18, 19, 21, 22, 23, 26}, {1, 3, 7, 8, 9, 10, 11, 12, 13, 14, 18, 20, 21, 23, 25}, {2, 3, 4, 10, 11, 12, 13, 16, 17, 21, 25}, {5, 7, 10, 12, 13, 16, 17, 18, 22, 25, 26}, {2, 3, 4, 5, 6, 7, 9, 12, 15, 19, 20, 21}, {2, 3, 14, 16, 21, 25}, {2, 5, 6, 7, 10, 12, 16, 23, 26}];
RolesDemands = [];
RolesContinuity = [];
ExamLen = [2, 2, 2, 2, 2, 2, 2, 2, 2, 2];
LunchTsMinLen = 2;
LunchStarts = [3..6];
SupervisorAvailable = 0;
OptimalLunchLenght = [0, 3];
OptimalStartTs = [1, 0];
OptimalFinishTs = [1, 9];
MinimizeRooms = 400;
RolesSoftContinuity = array2d(1..2,{},[]);
SameDegreeInRoom = 0;
Mergeability = 1;
